vertexct = 25 ;
orderct = 3 ;
order = [|3,21,5 | 4,22,3 |5,23,4|]  ;
MAX_CAPACITY = 6;
edgect = 83 ;
edet =
[| %1,1,0,0|
   1,2,6,4,5
  | 2,1,6,4,5
  | 2,3,6,4,5
  | 3,2,6,4,5
  | 3,4,6,4,5
  | 4,3,6,4,5
  | 4,5,6,4,5
  | 5,4,6,4,5
  
  | 6,7,6,4,5
  | 7,6,6,4,5
  | 7,8,6,4,5
  | 8,7,6,4,5
  | 8,9,6,4,5
  | 9,8,6,4,5
  | 9,10,6,4,5
  | 10,9,6,4,5
  
  | 11,12,6,1,5
  | 12,11,6,1,5
  | 12,13,6,1,5
  | 13,12,6,1,5
  | 13,14,6,1,5
  | 14,13,6,1,5
  | 14,15,6,1,5
  | 15,14,6,1,5
  | 16,17,6,4,5
  | 17,16,6,4,5
  | 17,18,6,4,5
  | 18,17,6,4,5
  | 18,19,6,4,5
  | 19,18,6,4,5
  | 19,20,6,4,5
  | 20,19,6,4,5
  | 21,22,6,4,5
  | 22,21,6,4,5
  | 22,23,6,4,5
  | 23,22,6,4,8
  | 23,24,6,4,5
  | 24,23,6,5,8
  | 24,25,6,4,5
  | 25,24,6,4,5

  | 1,6,6,4,5
  | 6,1,6,4,5
  | 6,11,6,4,5
  | 11,6,6,4,5
  | 11,16,6,4,5
  | 16,11,6,4,5
  | 16,21,6,4,5
  | 21,16,6,4,5


  | 2,7,6,4,5
  | 7,2,6,4,5
  | 7,12,6,4,5
  | 12,7,6,4,5
  | 12,17,6,4,5
  | 17,12,6,4,5
  | 17,22,6,4,5
  | 22,17,6,4,5

  | 3,8,6,1,5
  | 8,3,6,1,5
  | 8,13,6,1,5
  | 13,8,6,1,5
  | 13,18,6,1,5
  | 18,13,6,1,5
  | 18,23,6,1,5
  | 23,18,6,1,5

  | 4,9,6,4,8
  | 9,4,6,4,5
  | 9,14,6,4,8
  | 14,9,6,4,5
  | 14,19,6,4,8
  | 19,14,6,4,5
  | 19,24,6,4,8
  | 24,19,6,4,5
  
  | 5,10,6,4,5
  | 10,5,6,4,5
  | 10,15,6,4,5
  | 15,10,6,4,5
  | 15,20,6,4,5
  | 20,15,6,4,5
  | 20,25,6,4,5
  | 25,20,6,4,5
  | 4,22,20,38,40
  | 5,23,20,38,40
  | 3,21,20,38,40
  |] ;
  
  pathct = 24 ;
  maxpath = 8 ;
  pathlen = [6,6,6,8,6,6,6,6,6,6,6,6,6,6,6,6,6,6,1,1,1,6,6,6] ;
  pathstep = [|
    57,59,61,63,36,34,0,0
    | 57,59,61,28,55,34,0,0
    | 57,59,20,53,55,34,0,0
    | 4,49,51,19,61,63,36,34
    | 57,12,51,53,55,34,0,0
    
    | 6,57,59,61,63,36,0,0
    | 65,67,22,61,63,36,0,0
    | 65,67,69,71,38,36,0,0
    | 65,14,59,61,28,55,0,0
    | 65,67,69,30,28,55,0,0
    | 65,67,69,30,63,36,0,0
    | 6,57,59,61,28,55,0,0
    
    | 73,75,24,22,61,63,0,0
    | 8,65,67,22,61,63,0,0
    | 73,75,77,32,30,63,0,0
    | 8,65,14,59,61,63,0,0
    | 8,65,67,69,30,63,0,0
    | 8,6,57,59,61,63,0,0
    | 81,0,0,0,0,0,0,0
    | 82,0,0,0,0,0,0,0
    | 83,0,0,0,0,0,0,0
    | 57,12,10,43,45,47,0,0
    | 6,57,12,51,53,55,0,0
    | 57,59,20,18,45,47,0,0
    |] ;
    